(set-info :origin "driver benchmark extracted from Microsoft SDV")
(set-logic HORN)
(declare-fun Proc2 (Int Bool Int Int Int Int) Bool)
(declare-fun Proc40 (Int Bool Int Bool Int) Bool)
(declare-fun Proc16 (Int Bool Int) Bool)
(declare-fun Proc11 (Int Bool Int Int Int) Bool)
(declare-fun Proc25 (Int Bool Int) Bool)
(declare-fun Proc27 (Int Bool Int) Bool)
(declare-fun Proc33 (Int Bool Int Int) Bool)
(declare-fun Proc9 (Int Bool Int Int Int) Bool)
(declare-fun Proc14 (Int Bool) Bool)
(declare-fun Proc17 (Int Bool Int Bool Int) Bool)
(declare-fun Proc7 (Int Bool Int) Bool)
(declare-fun Proc36 (Int Bool) Bool)
(declare-fun Proc39 (Int Bool) Bool)
(declare-fun Proc23 (Int Bool Int) Bool)
(declare-fun Proc1 (Int Bool Int Int Int Int) Bool)
(declare-fun Proc31 (Int Bool Int) Bool)
(declare-fun Proc38 (Int Bool Int) Bool)
(declare-fun Proc30 (Int Bool Int) Bool)
(declare-fun Proc34 (Int Bool Int Int Int) Bool)
(declare-fun Proc3 (Int Bool) Bool)
(declare-fun Proc26 (Int Bool Int) Bool)
(declare-fun Proc21 (Int Bool Int) Bool)
(declare-fun Proc28 (Int Bool Int) Bool)
(declare-fun Proc5 (Int Bool Int Int) Bool)
(declare-fun Proc0 (Int Bool) Bool)
(declare-fun Proc19 (Int Bool Int) Bool)
(declare-fun Proc6 (Int Bool) Bool)
(declare-fun Proc35 (Int Bool) Bool)
(declare-fun Proc32 (Int Bool) Bool)
(declare-fun Proc12 (Int Bool) Bool)
(declare-fun Proc18 (Int Bool Int) Bool)
(declare-fun Proc37 (Int Bool Int Int) Bool)
(declare-fun Proc20 (Int Bool Int) Bool)
(declare-fun Proc29 (Int Bool Int) Bool)
(declare-fun Proc4 (Int Bool Int Int Int Int) Bool)
(declare-fun Proc10 (Int Bool Int) Bool)
(declare-fun Proc15 (Int Bool Int) Bool)
(declare-fun Proc13 (Int Bool) Bool)
(declare-fun Proc24 (Int Bool Int Int) Bool)
(declare-fun Proc8 (Int Bool Int) Bool)
(declare-fun Proc22 (Int Bool Int) Bool)
(assert (forall ((A Int)
         (B Int)
         (C Int)
         (D Int)
         (E Int)
         (F Int)
         (G Int)
         (H Int)
         (I Int)
         (J Int)
         (K Int)
         (L Bool))
  (let ((a!1 (or (<= 0 J)
                 (not (and (= H J) (= G I)))
                 (not (and (= F H) (= E G)))))
        (a!2 (or (<= 0 D)
                 (not (Proc3 C L))
                 (not (and (= H D) (= G C)))
                 (not (and (= F H) (= E G)))))
        (a!3 (or (not (<= 0 D))
                 (= B 0)
                 (not (and (= H 0) (= G C)))
                 (not (and (= F H) (= E G))))))
  (let ((a!4 (and a!1
                  (or (not (<= 0 J)) (not (Proc2 I L 105 0 D C)) (and a!2 a!3)))))
  (let ((a!5 (not (or (not L) (not (Proc0 K L)) (not (Proc1 K L 103 0 J I)) a!4))))
    (=> a!5 (Proc4 K L B A F E)))))))
(assert (forall ((A Int)
         (B Int)
         (C Int)
         (D Int)
         (E Int)
         (F Int)
         (G Int)
         (H Int)
         (I Int)
         (J Int)
         (K Int)
         (L Bool)
         (M Int))
  (let ((a!1 (and (= M K) (not (<= J (+ 12 M)))))
        (a!2 (and (not (<= J K)) (= I J) (not (<= H (+ 24 I))) (not (<= H J))))
        (a!3 (and (not (<= F (+ 1 G))) (not (<= F H)))))
  (let ((a!4 (or (not L)
                 (not a!1)
                 (not a!2)
                 (not (= G H))
                 (not a!3)
                 (not (Proc0 F L))
                 (not (Proc5 F L I 24))
                 (not (and (= E D) (= C F))))))
    (=> (not a!4) (Proc1 K L B A E C))))))
(assert (forall ((A Int)
         (B Int)
         (C Int)
         (D Int)
         (E Int)
         (F Int)
         (G Int)
         (H Int)
         (I Int)
         (J Int)
         (K Int)
         (L Bool)
         (M Int))
  (let ((a!1 (and (= M K) (not (<= J (+ 12 M)))))
        (a!2 (and (not (<= J K)) (= I J) (not (<= H (+ 24 I))) (not (<= H J))))
        (a!3 (and (not (<= F (+ 1 G))) (not (<= F H)))))
  (let ((a!4 (or (not L)
                 (not a!1)
                 (not a!2)
                 (not (= G H))
                 (not a!3)
                 (not (Proc0 F L))
                 (not (Proc5 F L I 24))
                 (not (and (= E D) (= C F))))))
    (=> (not a!4) (Proc2 K L B A E C))))))
(assert (forall ((A Int) (B Int) (L Bool))
  (let ((a!1 (not (or (not L)
                      (not (Proc0 B L))
                      (not (Proc6 B L))
                      (not (Proc3 B L))))))
    (=> a!1 (Proc7 B L A)))))
(assert (forall ((A Int) (L Bool))
  (let ((a!1 (not (or (not L) (not (Proc0 A L))))))
    (=> a!1 (Proc6 A L)))))
(assert (forall ((A Int) (L Bool))
  (let ((a!1 (not (or (not L) (not (Proc0 A L))))))
    (=> a!1 (Proc3 A L)))))
(assert (forall ((A Int) (B Int) (C Int) (D Int) (E Int) (F Int) (L Bool))
  (let ((a!1 (and (not (<= D (+ 1 F))) (not (<= D E)))))
  (let ((a!2 (not (or (not L)
                      (not (= F E))
                      (not a!1)
                      (not (Proc8 D L F))
                      (not (= C D))))))
    (=> a!2 (Proc9 E L B A C))))))
(assert (forall ((A Int) (B Int) (L Bool)) (=> L (Proc8 B L A))))
(assert (forall ((A Int) (B Int) (L Bool)) (=> false (Proc10 B L A))))
(assert (forall ((A Int)
         (B Int)
         (C Int)
         (D Int)
         (E Int)
         (F Int)
         (G Int)
         (H Int)
         (L Bool))
  (let ((a!1 (and (not (<= A (+ 1 B))) (not (<= A G)))))
  (let ((a!2 (or (not (= H 0))
                 (not (= B G))
                 (not a!1)
                 (not (and (Proc10 A L B) (= D A)))
                 (not (= C D)))))
  (let ((a!3 (and (or (= H 0)
                      (not (Proc9 G L F H E))
                      (not (= D E))
                      (not (= C D)))
                  a!2)))
    (=> (not (or (not L) a!3)) (Proc11 G L F H C)))))))
(assert (forall ((A Int) (L Bool)) (=> L (Proc12 A L))))
(assert (forall ((A Int) (L Bool)) (=> L (Proc13 A L))))
(assert (forall ((A Int) (L Bool)) (=> L (Proc14 A L))))
(assert (forall ((A Int)
         (B Int)
         (C Int)
         (D Int)
         (E Int)
         (F Int)
         (G Int)
         (H Int)
         (L Bool)
         (N Bool)
         (O Bool)
         (P Bool))
  (let ((a!1 (not (and (not (<= H 0)) (Proc15 H P G))))
        (a!2 (not (and (= C E) (= N O) (= B F)))))
  (let ((a!3 (or (not (and (= E D) (not O))) a!2))
        (a!4 (or (= (not L) P) (not (and (= E A) (= O L))) a!2)))
  (let ((a!5 (not (or (not P)
                      a!1
                      (not (Proc14 G P))
                      (not (Proc13 G P))
                      (not (Proc12 G P))
                      (not (Proc16 G P F))
                      (and a!3 a!4)))))
    (=> a!5 (Proc17 H P C N B)))))))
(assert (forall ((A Int) (B Int) (L Bool))
  (let ((a!1 (not (or (not L) (not (= B 0))))))
    (=> a!1 (Proc18 A L B)))))
(assert (forall ((A Int) (B Int) (L Bool))
  (let ((a!1 (not (or (not L) (not (= B 0))))))
    (=> a!1 (Proc19 A L B)))))
(assert (forall ((A Int) (B Int) (L Bool))
  (let ((a!1 (not (or (not L) (not (= B 0))))))
    (=> a!1 (Proc20 A L B)))))
(assert (forall ((A Int) (B Int) (L Bool))
  (let ((a!1 (not (or (not L) (not (= B 0))))))
    (=> a!1 (Proc21 A L B)))))
(assert (forall ((A Int) (B Int) (L Bool))
  (let ((a!1 (not (or (not L) (not (= B 1))))))
    (=> a!1 (Proc22 A L B)))))
(assert (forall ((A Int) (B Int) (L Bool))
  (let ((a!1 (not (or (not L) (not (= B 0))))))
    (=> a!1 (Proc23 A L B)))))
(assert (forall ((A Int) (B Int) (C Int) (D Int) (E Int) (F Int) (L Bool))
  (let ((a!1 (and (not (<= D (+ 1 F))) (not (<= D E)))))
  (let ((a!2 (or (not L)
                 (not (= F E))
                 (not a!1)
                 (not (Proc11 D L F 0 C))
                 (not (and (= B 0) (= A C))))))
    (=> (not a!2) (Proc24 E L B A))))))
(assert (forall ((A Int) (B Int) (L Bool))
  (let ((a!1 (not (or (not L) (not (= B 0))))))
    (=> a!1 (Proc25 A L B)))))
(assert (forall ((A Int) (B Int) (L Bool))
  (let ((a!1 (not (or (not L) (not (= B 0))))))
    (=> a!1 (Proc26 A L B)))))
(assert (forall ((A Int) (B Int) (L Bool))
  (let ((a!1 (not (or (not L) (not (= B 0))))))
    (=> a!1 (Proc27 A L B)))))
(assert (forall ((A Int) (B Int) (L Bool))
  (let ((a!1 (not (or (not L) (not (= B 0))))))
    (=> a!1 (Proc28 A L B)))))
(assert (forall ((A Int) (B Int) (C Int) (L Bool))
  (let ((a!1 (or (not L) (not (= C (- 1073741823))) (not (= B C)))))
    (=> (not a!1) (Proc29 A L B)))))
(assert (forall ((A Int) (B Int) (L Bool))
  (let ((a!1 (not (or (not L) (not (= B 0))))))
    (=> a!1 (Proc30 A L B)))))
(assert (forall ((A Int) (B Int) (C Int) (L Bool)) (=> L (Proc5 C L B A))))
(assert (forall ((A Int)
         (B Int)
         (C Int)
         (D Int)
         (E Int)
         (F Int)
         (G Int)
         (H Int)
         (I Int)
         (J Int)
         (K Int)
         (L Bool)
         (M Int)
         (Q Int)
         (R Int)
         (S Int)
         (T Int)
         (U Int)
         (V Int)
         (W Int)
         (X Int)
         (Y Int)
         (Z Int)
         (A1 Int)
         (B1 Int)
         (C1 Int))
  (let ((a!1 (and (or (= A1 0)
                      (not (Proc29 B1 L D))
                      (not (= Y D))
                      (not (Proc33 B1 L Y C1))
                      (= C1 0)
                      (not (= X Y)))
                  (or (not (= C 1))
                      (= C 0)
                      (= A1 0)
                      (not (Proc29 B1 L D))
                      (not (= Y D))
                      (not (Proc33 B1 L Y C1))
                      (= C1 0)
                      (not (= X Y))))))
  (let ((a!2 (and (or (= A1 0) a!1) (or (not (= B 1)) (= B 0) (= A1 0) a!1))))
  (let ((a!3 (and (or (= A1 0)
                      (not (Proc29 B1 L Z))
                      (not (= Y Z))
                      (not (Proc33 B1 L Y C1))
                      (= C1 0)
                      (not (= X Y)))
                  (or (= A1 0)
                      (not (Proc29 B1 L W))
                      (not (= Y W))
                      (not (Proc33 B1 L Y C1))
                      (= C1 0)
                      (not (= X Y)))
                  (or (= A1 0)
                      (not (Proc29 B1 L V))
                      (not (= Y V))
                      (not (Proc33 B1 L Y C1))
                      (= C1 0)
                      (not (= X Y)))
                  (or (= A1 0)
                      (not (Proc29 B1 L U))
                      (not (= Y U))
                      (not (Proc33 B1 L Y C1))
                      (= C1 0)
                      (not (= X Y)))
                  (or (= A1 0)
                      (not (Proc29 B1 L T))
                      (not (= Y T))
                      (not (Proc33 B1 L Y C1))
                      (= C1 0)
                      (not (= X Y)))
                  (or (= A1 0)
                      (not (Proc29 B1 L S))
                      (not (= Y S))
                      (not (Proc33 B1 L Y C1))
                      (= C1 0)
                      (not (= X Y)))
                  (or (= A1 0)
                      (not (Proc29 B1 L R))
                      (not (= Y R))
                      (not (Proc33 B1 L Y C1))
                      (= C1 0)
                      (not (= X Y)))
                  (or (not (Proc29 B1 L Q))
                      (not (= Y Q))
                      (not (Proc33 B1 L Y C1))
                      (= C1 0)
                      (not (= X Y)))
                  (or (= A1 0)
                      (not (Proc29 B1 L M))
                      (not (= Y M))
                      (not (Proc33 B1 L Y C1))
                      (= C1 0)
                      (not (= X Y)))
                  (or (= A1 0)
                      (not (Proc29 B1 L K))
                      (not (= Y K))
                      (not (Proc33 B1 L Y C1))
                      (= C1 0)
                      (not (= X Y)))
                  (or (= A1 0)
                      (not (Proc29 B1 L J))
                      (not (= Y J))
                      (not (Proc33 B1 L Y C1))
                      (= C1 0)
                      (not (= X Y)))
                  (or (not (Proc29 B1 L I))
                      (not (= Y I))
                      (not (Proc33 B1 L Y C1))
                      (= C1 0)
                      (not (= X Y)))
                  (or (= A1 0)
                      (not (Proc29 B1 L H))
                      (not (= Y H))
                      (not (Proc33 B1 L Y C1))
                      (= C1 0)
                      (not (= X Y)))
                  (or (= A1 0)
                      (not (Proc29 B1 L G))
                      (not (= Y G))
                      (not (Proc33 B1 L Y C1))
                      (= C1 0)
                      (not (= X Y)))
                  (or (= A1 0)
                      (not (Proc29 B1 L F))
                      (not (= Y F))
                      (not (Proc33 B1 L Y C1))
                      (= C1 0)
                      (not (= X Y)))
                  (or (not (Proc29 B1 L E))
                      (not (= Y E))
                      (not (Proc33 B1 L Y C1))
                      (= C1 0)
                      (not (= X Y)))
                  (or (= A1 0) a!2))))
  (let ((a!4 (not (or (not L)
                      (= C1 0)
                      (not (Proc31 B1 L C1))
                      (= A1 0)
                      (not (Proc32 B1 L))
                      a!3))))
    (=> a!4 (Proc34 B1 L A C1 X))))))))
(assert (forall ((A Int) (B Int) (C Int) (D Int) (L Bool))
  (let ((a!1 (not (or (not L)
                      (not (Proc35 D L))
                      (not (Proc29 D L C))
                      (not (Proc36 D L))))))
    (=> a!1 (Proc37 D L B A)))))
(assert (forall ((A Int) (B Int) (L Bool))
  (let ((a!1 (not (or (not L) (not (Proc7 B L A))))))
    (=> a!1 (Proc38 B L A)))))
(assert (forall ((A Int) (B Int) (L Bool))
  (=> (not (or (not L) (= B 0))) (Proc31 A L B))))
(assert (forall ((A Int) (L Bool)) (=> L (Proc0 A L))))
(assert (forall ((A Int)
         (B Int)
         (C Int)
         (D Int)
         (E Int)
         (F Int)
         (G Int)
         (H Int)
         (I Int)
         (J Int)
         (K Int)
         (L Bool)
         (M Int)
         (Q Int)
         (R Int)
         (S Int)
         (T Int)
         (U Int)
         (V Int)
         (W Int)
         (X Int)
         (Y Int)
         (Z Int)
         (A1 Int)
         (B1 Int)
         (C1 Int)
         (D1 Int)
         (E1 Int))
  (let ((a!1 (and (not (<= C1 (+ 12 E1))) (not (<= C1 D1))))
        (a!2 (or (not (and (= B1 0) (= Q R))) (not (= M Q))))
        (a!3 (or (= A1 0)
                 (not (Proc39 R L))
                 (not (and (Proc37 R L F E) (= Q R)))
                 (not (= M Q))))
        (a!4 (or (not (and (= A1 0) (= Q R))) (not (= M Q))))
        (a!5 (or (not (and (Proc38 R L A) (= Q R))) (not (= M Q)))))
  (let ((a!6 (and (or (= B1 0)
                      (not (Proc39 R L))
                      (not (Proc34 R L I H G))
                      (not (= Q R))
                      (not (= M Q)))
                  a!2
                  a!3
                  a!4
                  (or (not (= Q R)) (not (= M Q)))
                  (or (not (Proc4 R L D E1 C B)) (not (= Q B)) (not (= M Q)))
                  a!5)))
  (let ((a!7 (and (or (not (= Q R)) (not (= M Q)))
                  (or (not (Proc25 R L K)) (not (Proc22 R L J)) a!6))))
  (let ((a!8 (not (or (not L)
                      (not (= E1 D1))
                      (not a!1)
                      (not (Proc20 C1 L B1))
                      (not (Proc27 C1 L A1))
                      (not (Proc21 C1 L Z))
                      (not (Proc26 C1 L Y))
                      (not (Proc19 C1 L X))
                      (not (Proc23 C1 L W))
                      (not (Proc30 C1 L V))
                      (not (Proc28 C1 L U))
                      (not (Proc18 C1 L T))
                      (not (Proc24 C1 L S R))
                      a!7))))
    (=> a!8 (Proc16 D1 L M))))))))
(assert (forall ((A Int) (L Bool)) (=> L (Proc32 A L))))
(assert (forall ((A Int) (B Int) (C Int) (L Bool)) (=> L (Proc33 C L B A))))
(assert (forall ((A Int) (L Bool)) (=> L (Proc39 A L))))
(assert (forall ((A Int) (L Bool)) (=> L (Proc35 A L))))
(assert (forall ((A Int) (L Bool)) (=> L (Proc36 A L))))
(assert (forall ((A Int)
         (B Int)
         (C Int)
         (D Int)
         (E Int)
         (F Int)
         (G Int)
         (H Int)
         (I Int)
         (J Int)
         (K Int)
         (L Bool)
         (M Int)
         (Q Int)
         (R Int)
         (S Int)
         (T Int)
         (U Int)
         (V Int)
         (W Int)
         (X Int)
         (Y Int)
         (Z Int)
         (A1 Int)
         (B1 Int)
         (C1 Int)
         (D1 Int)
         (E1 Int)
         (F1 Int)
         (G1 Int)
         (H1 Int)
         (I1 Int)
         (J1 Int)
         (K1 Int)
         (L1 Int)
         (M1 Int)
         (N1 Int)
         (O1 Int)
         (P1 Int)
         (Q1 Int)
         (R1 Int)
         (S1 Int)
         (T1 Int)
         (U1 Int)
         (V1 Int)
         (W1 Int)
         (X1 Int)
         (Y1 Int)
         (Z1 Int)
         (A2 Int)
         (B2 Int))
  (let ((a!1 (and (= B2 A2)
                  (not (<= Z1 (+ 4 B2)))
                  (not (<= Z1 A2))
                  (= Y1 Z1)
                  (not (<= X1 (+ 332 Y1)))
                  (not (<= X1 Z1))
                  (= W1 X1)
                  (not (<= V1 (+ 4 W1)))))
        (a!2 (and (not (<= V1 X1))
                  (= U1 V1)
                  (not (<= T1 (+ 536 U1)))
                  (not (<= T1 V1))
                  (= S1 T1)
                  (not (<= R1 (+ 240 S1)))
                  (not (<= R1 T1))
                  (= Q1 R1)
                  (not (<= P1 (+ 240 Q1)))
                  (not (<= P1 R1))
                  (= O1 P1)
                  (not (<= N1 (+ 240 O1)))
                  (not (<= N1 P1))
                  (= M1 N1)
                  (not (<= L1 (+ 4 M1)))
                  (not (<= L1 N1))
                  (= K1 L1)
                  (not (<= J1 (+ 536 K1)))
                  (not (<= J1 L1))
                  (= I1 J1)
                  (not (<= H1 (+ 332 I1)))
                  (not (<= H1 J1))
                  (= G1 H1)
                  (not (<= F1 (+ 240 G1)))
                  (not (<= F1 H1))
                  (= E1 F1)
                  (not (<= D1 (+ 240 E1)))
                  (not (<= D1 F1))
                  (= C1 D1)
                  (not (<= B1 (+ 332 C1)))
                  (not (<= B1 D1))
                  (= A1 B1)
                  (not (<= Z (+ 4 A1)))
                  (not (<= Z B1))
                  (= Y Z)
                  (not (<= X (+ 68 Y)))
                  (not (<= X Z))
                  (= W X)
                  (not (<= V (+ 240 W)))
                  (not (<= V X))
                  (= U V)
                  (not (<= T (+ 240 U)))
                  (not (<= T V))
                  (= S T)
                  (not (<= R (+ 240 S)))
                  (not (<= R T))
                  (= Q R)
                  (not (<= M (+ 240 Q)))
                  (not (<= M R))
                  (= K M)
                  (not (<= J (+ 240 K)))
                  (not (<= J M))
                  (= I J)
                  (not (<= H (+ 40 I)))
                  (not (<= H J))
                  (= G H)
                  (not (<= F (+ 332 G)))
                  (not (<= F H))
                  (= E F)
                  (not (<= D (+ 4 E)))
                  (not (<= D F))
                  (= C D)
                  (not (<= B (+ 40 C)))
                  (not (<= B D)))))
  (let ((a!3 (not (or (not L) (not a!1) (not a!2) (not (= A B))))))
    (=> a!3 (Proc15 A2 L A))))))
(assert (forall ((A Int) (B Int) (C Int) (D Int) (E Int) (L Bool) (N Bool) (O Bool))
  (let ((a!1 (or (not O) (not (and (Proc17 E true D N C) (not N))))))
    (=> (not a!1) (Proc40 E O B L A)))))
(assert (let ((a!1 (exists ((V0 Int) (V1 Bool) (V2 Int) (V3 Bool) (V4 Int))
             (not (=> (and (Proc40 V0 V1 V2 V3 V4) (not false)) false)))))
  (not a!1)))

(check-sat)
